(set-logic QF_S)
(declare-fun _var_0xINPUT_121774_() String)
(declare-fun __woorpje_diseq_pref0_() String)
(declare-fun __woorpje_diseq_suf_l0_() String)
(declare-fun __woorpje_diseq_suf_r0_() String)
(assert (=(str.++  "NUGdnNdD73" "")(str.++ __woorpje_diseq_pref0_  "D" __woorpje_diseq_suf_l0_  "")) )
(assert (=(str.++ _var_0xINPUT_121774_  "")(str.++ __woorpje_diseq_pref0_  "3" __woorpje_diseq_suf_r0_  "")) )
(check-sat)
